NAME : single
TYPE : ATSP
DIMENSION : 12
EDGE_WEIGHT_TYPE : EXPLICIT
EDGE_WEIGHT_FORMAT : FULL_MATRIX
EDGE_WEIGHT_SECTION
0 825 744 1564 1689 1001 717 932 1017 901 960 618 
0 0 189 834 799 767 559 621 860 1119 1019 859 
0 189 0 717 704 600 429 815 1035 1160 1197 921 
0 834 717 0 291 930 968 1474 1709 1914 1999 1678 
0 799 704 291 0 989 998 1498 1751 1821 1859 1688 
0 767 600 930 989 0 267 1440 1676 1934 1522 1129 
0 559 429 968 998 267 0 1172 1427 1659 1248 848 
0 621 815 1474 1498 1440 1172 0 224 588 568 862 
0 860 1035 1709 1751 1676 1427 224 0 448 404 845 
0 1119 1160 1914 1821 1934 1659 588 448 0 279 520 
0 1019 1197 1999 1859 1522 1248 568 404 279 0 596 
0 859 921 1678 1688 1129 848 862 845 520 596 0 
EOF